20 10
38 20 144 30 5 23 8 24 19 52
10 27 147 69 152 13 224 104 6 43
121 240 130 37 182 178 47 102 88 76
12 86 4 165 8 26 50 45 53 70
33 33 15 98 179 3 59 27 46 101
29 43 30 32 37 8 53 24 38 25
18 60 40 106 13 26 22 9 1 30
24 130 21 15 1 22 17 6 19 19
80 16 22 19 25 41 34 13 94 44
17 35 23 26 64 6 60 87 57 5
23 31 88 51 68 44 110 30 22 46
45 6 45 59 5 49 7 71 54 66
66 181 18 113 55 65 109 233 25 45
8 129 29 22 69 161 11 50 63 34
4 6 2 5 28 74 79 46 3 66
43 131 66 27 138 101 34 9 46 3
6 79 199 35 20 24 147 59 13 144
8 3 27 67 9 1 123 16 155 144
296 50 205 29 22 100 39 32 18 3
161 3 40 30 16 31 83 169 93 61
